p tw 880 13201 7 
1 8 
1 371 
2 9 
2 10 
2 372 
3 7 
3 10 
3 591 
4 8 
4 9 
4 592 
5 7 
5 9 
5 751 
6 8 
6 10 
6 752 
11 17 
11 18 
11 341 
12 19 
12 20 
12 342 
13 17 
13 20 
13 421 
14 18 
14 19 
14 422 
15 17 
15 19 
15 501 
16 18 
16 20 
16 502 
21 27 
21 28 
21 181 
22 29 
22 30 
22 182 
23 27 
23 30 
23 791 
24 28 
24 29 
24 792 
25 27 
25 29 
25 821 
26 28 
26 30 
26 822 
31 37 
31 38 
31 101 
32 39 
32 40 
32 102 
33 37 
33 40 
33 503 
34 38 
34 39 
34 504 
35 37 
35 39 
35 631 
36 38 
36 40 
36 632 
41 47 
41 48 
41 271 
42 49 
42 50 
42 272 
43 47 
43 50 
43 601 
44 48 
44 49 
44 602 
45 47 
45 49 
45 641 
46 48 
46 50 
46 642 
51 57 
51 58 
51 183 
52 59 
52 60 
52 184 
53 57 
53 60 
53 211 
54 58 
54 59 
54 212 
55 57 
55 59 
55 261 
56 58 
56 60 
56 262 
61 67 
61 68 
61 311 
62 69 
62 70 
62 312 
63 67 
63 70 
63 331 
64 68 
64 69 
64 332 
65 67 
65 69 
65 541 
66 68 
66 70 
66 542 
71 77 
71 78 
71 131 
72 79 
72 80 
72 132 
73 77 
73 80 
73 381 
74 78 
74 79 
74 382 
75 77 
75 79 
75 671 
76 78 
76 80 
76 672 
81 87 
81 88 
81 221 
82 89 
82 90 
82 222 
83 87 
83 90 
83 593 
84 88 
84 89 
84 594 
85 87 
85 89 
85 701 
86 88 
86 90 
86 702 
91 97 
91 98 
91 343 
92 99 
92 100 
92 344 
93 97 
93 100 
93 793 
94 98 
94 99 
94 794 
95 97 
95 99 
95 851 
96 98 
96 100 
96 852 
101 107 
101 108 
102 109 
102 110 
103 107 
103 110 
103 651 
104 108 
104 109 
104 652 
105 107 
105 109 
105 661 
106 108 
106 110 
106 662 
111 117 
111 118 
111 273 
112 119 
112 120 
112 274 
113 117 
113 120 
113 731 
114 118 
114 119 
114 732 
115 117 
115 119 
115 861 
116 118 
116 120 
116 862 
121 127 
121 128 
121 451 
122 129 
122 130 
122 452 
123 127 
123 130 
123 491 
124 128 
124 129 
124 492 
125 127 
125 129 
125 551 
126 128 
126 130 
126 552 
131 137 
131 138 
132 139 
132 140 
133 137 
133 140 
133 191 
134 138 
134 139 
134 192 
135 137 
135 139 
135 351 
136 138 
136 140 
136 352 
141 147 
141 148 
141 193 
142 149 
142 150 
142 194 
143 147 
143 150 
143 471 
144 148 
144 149 
144 472 
145 147 
145 149 
145 511 
146 148 
146 150 
146 512 
151 157 
151 158 
151 223 
152 159 
152 160 
152 224 
153 157 
153 160 
153 431 
154 158 
154 159 
154 432 
155 157 
155 159 
155 643 
156 158 
156 160 
156 644 
161 167 
161 168 
161 383 
162 169 
162 170 
162 384 
163 167 
163 170 
163 603 
164 168 
164 169 
164 604 
165 167 
165 169 
165 703 
166 168 
166 170 
166 704 
171 177 
171 178 
171 561 
172 179 
172 180 
172 562 
173 177 
173 180 
173 633 
174 178 
174 179 
174 634 
175 177 
175 179 
175 863 
176 178 
176 180 
176 864 
181 187 
181 188 
182 189 
182 190 
183 187 
183 190 
184 188 
184 189 
185 187 
185 189 
185 201 
186 188 
186 190 
186 202 
191 197 
191 198 
192 199 
192 200 
193 197 
193 200 
194 198 
194 199 
195 197 
195 199 
195 721 
196 198 
196 200 
196 722 
201 207 
201 208 
202 209 
202 210 
203 207 
203 210 
203 321 
204 208 
204 209 
204 322 
205 207 
205 209 
205 611 
206 208 
206 210 
206 612 
211 217 
211 218 
212 219 
212 220 
213 217 
213 220 
213 241 
214 218 
214 219 
214 242 
215 217 
215 219 
215 473 
216 218 
216 220 
216 474 
221 227 
221 228 
222 229 
222 230 
223 227 
223 230 
224 228 
224 229 
225 227 
225 229 
225 723 
226 228 
226 230 
226 724 
231 237 
231 238 
231 275 
232 239 
232 240 
232 276 
233 237 
233 240 
233 581 
234 238 
234 239 
234 582 
235 237 
235 239 
235 673 
236 238 
236 240 
236 674 
241 247 
241 248 
242 249 
242 250 
243 247 
243 250 
243 313 
244 248 
244 249 
244 314 
245 247 
245 249 
245 733 
246 248 
246 250 
246 734 
251 257 
251 258 
251 663 
252 259 
252 260 
252 664 
253 257 
253 260 
253 691 
254 258 
254 259 
254 692 
255 257 
255 259 
255 761 
256 258 
256 260 
256 762 
261 267 
261 268 
262 269 
262 270 
263 267 
263 270 
263 493 
264 268 
264 269 
264 494 
265 267 
265 269 
265 865 
266 268 
266 270 
266 866 
271 277 
271 278 
272 279 
272 280 
273 277 
273 280 
274 278 
274 279 
275 277 
275 279 
276 278 
276 280 
281 287 
281 288 
281 475 
282 289 
282 290 
282 476 
283 287 
283 290 
283 621 
284 288 
284 289 
284 622 
285 287 
285 289 
285 853 
286 288 
286 290 
286 854 
291 297 
291 298 
291 391 
292 299 
292 300 
292 392 
293 297 
293 300 
293 753 
294 298 
294 299 
294 754 
295 297 
295 299 
295 763 
296 298 
296 300 
296 764 
301 307 
301 308 
301 531 
302 309 
302 310 
302 532 
303 307 
303 310 
303 595 
304 308 
304 309 
304 596 
305 307 
305 309 
305 711 
306 308 
306 310 
306 712 
311 317 
311 318 
312 319 
312 320 
313 317 
313 320 
314 318 
314 319 
315 317 
315 319 
315 741 
316 318 
316 320 
316 742 
321 327 
321 328 
322 329 
322 330 
323 327 
323 330 
323 373 
324 328 
324 329 
324 374 
325 327 
325 329 
325 433 
326 328 
326 330 
326 434 
331 337 
331 338 
332 339 
332 340 
333 337 
333 340 
333 411 
334 338 
334 339 
334 412 
335 337 
335 339 
335 735 
336 338 
336 340 
336 736 
341 347 
341 348 
342 349 
342 350 
343 347 
343 350 
344 348 
344 349 
345 347 
345 349 
345 743 
346 348 
346 350 
346 744 
351 357 
351 358 
352 359 
352 360 
353 357 
353 360 
353 375 
354 358 
354 359 
354 376 
355 357 
355 359 
355 571 
356 358 
356 360 
356 572 
361 367 
361 368 
361 521 
362 369 
362 370 
362 522 
363 367 
363 370 
363 653 
364 368 
364 369 
364 654 
365 367 
365 369 
365 871 
366 368 
366 370 
366 872 
371 377 
371 378 
372 379 
372 380 
373 377 
373 380 
374 378 
374 379 
375 377 
375 379 
376 378 
376 380 
381 387 
381 388 
382 389 
382 390 
383 387 
383 390 
384 388 
384 389 
385 387 
385 389 
385 713 
386 388 
386 390 
386 714 
391 397 
391 398 
392 399 
392 400 
393 397 
393 400 
393 441 
394 398 
394 399 
394 442 
395 397 
395 399 
395 505 
396 398 
396 400 
396 506 
401 407 
401 408 
401 623 
402 409 
402 410 
402 624 
403 407 
403 410 
403 681 
404 408 
404 409 
404 682 
405 407 
405 409 
405 841 
406 408 
406 410 
406 842 
411 417 
411 418 
412 419 
412 420 
413 417 
413 420 
413 461 
414 418 
414 419 
414 462 
415 417 
415 419 
415 755 
416 418 
416 420 
416 756 
421 427 
421 428 
422 429 
422 430 
423 427 
423 430 
423 563 
424 428 
424 429 
424 564 
425 427 
425 429 
425 765 
426 428 
426 430 
426 766 
431 437 
431 438 
432 439 
432 440 
433 437 
433 440 
434 438 
434 439 
435 437 
435 439 
435 565 
436 438 
436 440 
436 566 
441 447 
441 448 
442 449 
442 450 
443 447 
443 450 
443 533 
444 448 
444 449 
444 534 
445 447 
445 449 
445 873 
446 448 
446 450 
446 874 
451 457 
451 458 
452 459 
452 460 
453 457 
453 460 
453 495 
454 458 
454 459 
454 496 
455 457 
455 459 
455 605 
456 458 
456 460 
456 606 
461 467 
461 468 
462 469 
462 470 
463 467 
463 470 
463 645 
464 468 
464 469 
464 646 
465 467 
465 469 
465 781 
466 468 
466 470 
466 782 
471 477 
471 478 
472 479 
472 480 
473 477 
473 480 
474 478 
474 479 
475 477 
475 479 
476 478 
476 480 
481 487 
481 488 
481 523 
482 489 
482 490 
482 524 
483 487 
483 490 
483 543 
484 488 
484 489 
484 544 
485 487 
485 489 
485 831 
486 488 
486 490 
486 832 
491 497 
491 498 
492 499 
492 500 
493 497 
493 500 
494 498 
494 499 
495 497 
495 499 
496 498 
496 500 
501 507 
501 508 
502 509 
502 510 
503 507 
503 510 
504 508 
504 509 
505 507 
505 509 
506 508 
506 510 
511 517 
511 518 
512 519 
512 520 
513 517 
513 520 
513 693 
514 518 
514 519 
514 694 
515 517 
515 519 
515 843 
516 518 
516 520 
516 844 
521 527 
521 528 
522 529 
522 530 
523 527 
523 530 
524 528 
524 529 
525 527 
525 529 
525 613 
526 528 
526 530 
526 614 
531 537 
531 538 
532 539 
532 540 
533 537 
533 540 
534 538 
534 539 
535 537 
535 539 
535 683 
536 538 
536 540 
536 684 
541 547 
541 548 
542 549 
542 550 
543 547 
543 550 
544 548 
544 549 
545 547 
545 549 
545 811 
546 548 
546 550 
546 812 
551 557 
551 558 
552 559 
552 560 
553 557 
553 560 
553 615 
554 558 
554 559 
554 616 
555 557 
555 559 
555 635 
556 558 
556 560 
556 636 
561 567 
561 568 
562 569 
562 570 
563 567 
563 570 
564 568 
564 569 
565 567 
565 569 
566 568 
566 570 
571 577 
571 578 
572 579 
572 580 
573 577 
573 580 
573 795 
574 578 
574 579 
574 796 
575 577 
575 579 
575 833 
576 578 
576 580 
576 834 
581 587 
581 588 
582 589 
582 590 
583 587 
583 590 
583 783 
584 588 
584 589 
584 784 
585 587 
585 589 
585 855 
586 588 
586 590 
586 856 
591 597 
591 598 
592 599 
592 600 
593 597 
593 600 
594 598 
594 599 
595 597 
595 599 
596 598 
596 600 
601 607 
601 608 
602 609 
602 610 
603 607 
603 610 
604 608 
604 609 
605 607 
605 609 
606 608 
606 610 
611 617 
611 618 
612 619 
612 620 
613 617 
613 620 
614 618 
614 619 
615 617 
615 619 
616 618 
616 620 
621 627 
621 628 
622 629 
622 630 
623 627 
623 630 
624 628 
624 629 
625 627 
625 629 
625 875 
626 628 
626 630 
626 876 
631 637 
631 638 
632 639 
632 640 
633 637 
633 640 
634 638 
634 639 
635 637 
635 639 
636 638 
636 640 
641 647 
641 648 
642 649 
642 650 
643 647 
643 650 
644 648 
644 649 
645 647 
645 649 
646 648 
646 650 
651 657 
651 658 
652 659 
652 660 
653 657 
653 660 
654 658 
654 659 
655 657 
655 659 
655 771 
656 658 
656 660 
656 772 
661 667 
661 668 
662 669 
662 670 
663 667 
663 670 
664 668 
664 669 
665 667 
665 669 
665 801 
666 668 
666 670 
666 802 
671 677 
671 678 
672 679 
672 680 
673 677 
673 680 
674 678 
674 679 
675 677 
675 679 
675 715 
676 678 
676 680 
676 716 
681 687 
681 688 
682 689 
682 690 
683 687 
683 690 
684 688 
684 689 
685 687 
685 689 
685 773 
686 688 
686 690 
686 774 
691 697 
691 698 
692 699 
692 700 
693 697 
693 700 
694 698 
694 699 
695 697 
695 699 
695 745 
696 698 
696 700 
696 746 
701 707 
701 708 
702 709 
702 710 
703 707 
703 710 
704 708 
704 709 
705 707 
705 709 
705 813 
706 708 
706 710 
706 814 
711 717 
711 718 
712 719 
712 720 
713 717 
713 720 
714 718 
714 719 
715 717 
715 719 
716 718 
716 720 
721 727 
721 728 
722 729 
722 730 
723 727 
723 730 
724 728 
724 729 
725 727 
725 729 
725 823 
726 728 
726 730 
726 824 
731 737 
731 738 
732 739 
732 740 
733 737 
733 740 
734 738 
734 739 
735 737 
735 739 
736 738 
736 740 
741 747 
741 748 
742 749 
742 750 
743 747 
743 750 
744 748 
744 749 
745 747 
745 749 
746 748 
746 750 
751 757 
751 758 
752 759 
752 760 
753 757 
753 760 
754 758 
754 759 
755 757 
755 759 
756 758 
756 760 
761 767 
761 768 
762 769 
762 770 
763 767 
763 770 
764 768 
764 769 
765 767 
765 769 
766 768 
766 770 
771 777 
771 778 
772 779 
772 780 
773 777 
773 780 
774 778 
774 779 
775 777 
775 779 
775 785 
776 778 
776 780 
776 786 
781 787 
781 788 
782 789 
782 790 
783 787 
783 790 
784 788 
784 789 
785 787 
785 789 
786 788 
786 790 
791 797 
791 798 
792 799 
792 800 
793 797 
793 800 
794 798 
794 799 
795 797 
795 799 
796 798 
796 800 
801 807 
801 808 
802 809 
802 810 
803 807 
803 810 
803 825 
804 808 
804 809 
804 826 
805 807 
805 809 
805 835 
806 808 
806 810 
806 836 
811 817 
811 818 
812 819 
812 820 
813 817 
813 820 
814 818 
814 819 
815 817 
815 819 
815 845 
816 818 
816 820 
816 846 
821 827 
821 828 
822 829 
822 830 
823 827 
823 830 
824 828 
824 829 
825 827 
825 829 
826 828 
826 830 
831 837 
831 838 
832 839 
832 840 
833 837 
833 840 
834 838 
834 839 
835 837 
835 839 
836 838 
836 840 
841 847 
841 848 
842 849 
842 850 
843 847 
843 850 
844 848 
844 849 
845 847 
845 849 
846 848 
846 850 
851 857 
851 858 
852 859 
852 860 
853 857 
853 860 
854 858 
854 859 
855 857 
855 859 
856 858 
856 860 
861 867 
861 868 
862 869 
862 870 
863 867 
863 870 
864 868 
864 869 
865 867 
865 869 
866 868 
866 870 
871 877 
871 878 
872 879 
872 880 
873 877 
873 880 
874 878 
874 879 
875 877 
875 879 
876 878 
876 880 
